
Log started (V11.0.0) Wed May 14 15:23:34 2008

Tried aggregator 1 time.
Reduced MIP has 130 rows, 3001 columns, and 6030 nonzeros.
Presolve time =    0.03 sec.
Clique table members: 100.
MIP emphasis: balance optimality and feasibility.
MIP search method: dynamic search.
Parallel mode: none, using 1 thread.
Root relaxation solution time =    0.08 sec.

        Nodes                                         Cuts/
   Node  Left     Objective  IInf  Best Integer     Best Node    ItCnt     Gap

*     0+    0                         8219.0000       98.5882      373   98.80%
*     0+    0                          158.0000       98.5882      373   37.60%
      0     0       99.5359    55      158.0000      Fract: 4      399   37.00%
*     0+    0                          145.0000       99.5359      399   31.35%
      0     0      103.8674    59      145.0000      Cuts: 23      642   28.37%
*     0+    0                          138.0000      103.8674      642   24.73%
      0     0      104.0814    61      138.0000      Cuts: 13      746   24.58%
*     0+    0                          133.0000      104.0814      746   21.74%
      0     0      104.3068    66      133.0000      Cuts: 16      797   21.57%
*     0+    0                          132.0000      104.3068      797   20.98%
      0     0      104.5152    62      132.0000      Cuts: 10      823   20.82%
      0     0      104.6064    65      132.0000       Cuts: 5      841   20.75%
*     0+    0                          131.0000      104.6064      841   20.15%
      0     0      104.6170    68      131.0000       Cuts: 4      858   20.14%
*     0+    0                          129.0000      104.6170      858   18.90%
      0     0      104.7791    66      129.0000       Cuts: 8      882   18.78%
*     0+    0                          128.0000      104.7791      882   18.14%
      0     0      104.7839    73      128.0000       Cuts: 4      896   18.14%
*     0+    0                          120.0000      104.7839      896   12.68%
      0     0      105.0103    63      120.0000       Cuts: 3      928   12.49%
      0     0      106.0075    66      120.0000       Cuts: 6      993   11.66%
*     0+    0                          119.0000      106.0075      993   10.92%
      0     0      106.6472    60      119.0000       Cuts: 6     1011   10.38%
      0     0      106.6592    57      119.0000       Cuts: 5     1041   10.37%
*     0+    0                          117.0000      106.6592     1041    8.84%
*     0+    0                          115.0000      106.6592     1041    7.25%
      0     2      107.0000    54      115.0000      106.6592     1041    7.25%
    100    79      108.0000    31      115.0000      107.0000     3452    6.96%
    200   156      110.0000    22      115.0000      107.0000     5434    6.96%
    300   234      113.0000     9      115.0000      107.0000     6535    6.96%
*   340+  239                          114.0000      107.0000     6933    6.14%
    400   290      109.5103    30      114.0000      107.0000     8123    6.14%
*   491+  237                          113.0000      109.6722    11794    2.94%
    500   240      111.0000    48      113.0000      110.0000    11924    2.65%
*   541+  171                          112.0000      110.0000    12815    1.79%
    600   130    infeasible            112.0000      111.0000    17913    0.89%

Cover cuts applied:  82
Mixed integer rounding cuts applied:  20
Gomory fractional cuts applied:  5

Solution pool: 16 solutions saved.

MIP - Integer optimal solution:  Objective = 1.1200000000e+002
Solution time =   12.75 sec.  Iterations = 24741  Nodes = 660 (41)


Incumbent solution
Variable Name           Solution Value
Cmax                        112.000000
X_1_18                        1.000000
X_2_11                        1.000000
X_3_14                        1.000000
X_4_1                         1.000000
X_5_17                        1.000000
X_6_9                         1.000000
X_7_18                        1.000000
X_8_24                        1.000000
X_9_14                        1.000000
X_10_13                       1.000000
X_11_14                       1.000000
X_12_10                       1.000000
X_13_18                       1.000000
X_14_3                        1.000000
X_15_18                       1.000000
X_16_18                       1.000000
X_17_3                        1.000000
X_18_9                        1.000000
X_19_24                       1.000000
X_20_15                       1.000000
X_21_14                       1.000000
X_22_18                       1.000000
X_23_20                       1.000000
X_24_6                        1.000000
X_25_18                       1.000000
X_26_9                        1.000000
X_27_9                        1.000000
X_28_24                       1.000000
X_29_20                       1.000000
X_30_18                       1.000000
X_31_27                       1.000000
X_32_4                        1.000000
X_33_5                        1.000000
X_34_9                        1.000000
X_35_7                        1.000000
X_36_4                        1.000000
X_37_9                        1.000000
X_38_15                       1.000000
X_39_15                       1.000000
X_40_9                        1.000000
X_41_23                       1.000000
X_42_7                        1.000000
X_43_28                       1.000000
X_44_6                        1.000000
X_45_18                       1.000000
X_46_14                       1.000000
X_47_6                        1.000000
X_48_23                       1.000000
X_49_18                       1.000000
X_50_18                       1.000000
X_51_18                       1.000000
X_52_25                       1.000000
X_53_4                        1.000000
X_54_29                       1.000000
X_55_26                       1.000000
X_56_7                        1.000000
X_57_16                       1.000000
X_58_22                       1.000000
X_59_20                       1.000000
X_60_12                       1.000000
X_61_19                       1.000000
X_62_9                        1.000000
X_63_24                       1.000000
X_64_13                       1.000000
X_65_24                       1.000000
X_66_6                        1.000000
X_67_6                        1.000000
X_68_18                       1.000000
X_69_22                       1.000000
X_70_18                       1.000000
X_71_18                       1.000000
X_72_8                        1.000000
X_73_18                       1.000000
X_74_24                       1.000000
X_75_2                        1.000000
X_76_18                       1.000000
X_77_20                       1.000000
X_78_18                       1.000000
X_79_21                       1.000000
X_80_28                       1.000000
X_81_18                       1.000000
X_82_28                       1.000000
X_83_11                       1.000000
X_84_7                        1.000000
X_85_18                       1.000000
X_86_14                       1.000000
X_87_8                        1.000000
X_88_28                       1.000000
X_89_18                       1.000000
X_90_24                       1.000000
X_91_18                       1.000000
X_92_18                       1.000000
X_93_9                        1.000000
X_94_18                       1.000000
X_95_4                        1.000000
X_96_18                       1.000000
X_97_30                       1.000000
X_98_21                       1.000000
X_99_21                       1.000000
X_100_14                      1.000000
All other variables in the range 1-3001 are 0.
